0000000000000000
0000000000000000
0000111110000000
0011000001000000
0010000000100000
0000000000100000
0000000000010000
0000000000010000
0000000000010000
0000000000010000
0000001000010000
0000001000010000
0000010000010000
0000010000010000
0000001000000000
0000000000000000
